;; sequence(s): A168672
;; terms: 2 13 19 30 36 47 53 64 70 81 87 98 104 115 121 132 138 149 155 166
;; small program: loop(loop(2 + (x * x), 2, y mod 2) + x, x, 2)
;; fast program: 2 + (((1 + (2 + 2)) * ((x - (x div 2)) + x)) + x)
(set-logic UFNIA)
(define-fun divf ((a Int) (b Int)) Int (ite (< 0 b) (div a b) (div (- a) (- b))))
(define-fun modf ((a Int) (b Int)) Int (ite (< 0 b) (mod a b) (- (mod (- a) (- b)))))
(declare-fun f1 (Int) Int)
(declare-fun g1 () Int)
(declare-fun h1 (Int Int) Int)
(declare-fun u1 (Int Int) Int)
(declare-fun v1 (Int Int) Int)
(declare-fun f0 (Int Int) Int)
(declare-fun g0 (Int) Int)
(declare-fun h0 () Int)
(declare-fun u0 (Int Int) Int)
(declare-fun v0 (Int) Int)
(declare-fun small (Int) Int)
(declare-fun fast (Int) Int)
(assert (forall ((x Int)) (= (f1 x) (+ 2 (* x x)))))
(assert (= g1 2))
(assert (forall ((x Int) (y Int)) (= (h1 x y) (modf y 2))))
(assert (forall ((x Int) (y Int)) (= (u1 x y) (ite (<= x 0) y (f1 (u1 (- x 1) y))))))
(assert (forall ((x Int) (y Int)) (= (v1 x y) (u1 g1 (h1 x y)))))
(assert (forall ((x Int) (y Int)) (= (f0 x y) (+ (v1 x y) x))))
(assert (forall ((x Int)) (= (g0 x) x)))
(assert (= h0 2))
(assert (forall ((x Int) (y Int)) (= (u0 x y) (ite (<= x 0) y (f0 (u0 (- x 1) y) x)))))
(assert (forall ((x Int)) (= (v0 x) (u0 (g0 x) h0))))
(assert (forall ((x Int)) (= (small x) (v0 x))))
(assert (forall ((x Int)) (= (fast x) (+ 2 (+ (* (+ 1 (+ 2 2)) (+ (- x (divf x 2)) x)) x)))))
(assert (exists ((c Int)) (and (>= c 0) (not (= (small c) (fast c))))))
(check-sat)
